results_rootrelaxation/bin012_090_031.srr.sol
solution status: optimal solution found
objective value:                                   32
_var115_                            0.120000000000001 	(obj:5)
_var172_                           0.0799999999999988 	(obj:4)
_var237_                            0.599999999999999 	(obj:3)
_var392_                                         0.24 	(obj:4)
_var686_                                         0.12 	(obj:3)
_var693_                                         0.32 	(obj:2)
_var705_                            0.240000000000001 	(obj:2)
_var709_                            0.280000000000001 	(obj:5)
_var723_                                         0.44 	(obj:1)
_var731_                           0.0399999999999988 	(obj:4)
_var741_                                         0.12 	(obj:3)
_var757_                            0.560000000000001 	(obj:1)
_var760_                            0.639999999999999 	(obj:2)
_var761_                            0.439999999999999 	(obj:4)
_var764_                            0.279999999999999 	(obj:4)
_var766_                            0.160000000000002 	(obj:4)
_var773_                           0.0799999999999995 	(obj:5)
_var779_                            0.360000000000001 	(obj:1)
_var781_                                         0.68 	(obj:2)
_var784_                                         0.52 	(obj:4)
_var791_                                         0.36 	(obj:4)
_var800_                                         0.44 	(obj:1)
_var805_                                         0.32 	(obj:4)
_var813_                            0.200000000000001 	(obj:4)
_var818_                                         0.44 	(obj:3)
_var822_                                         0.12 	(obj:1)
_var824_                                          0.2 	(obj:4)
_var827_                            0.240000000000001 	(obj:4)
_var829_                            0.120000000000001 	(obj:3)
_var830_                            0.200000000000001 	(obj:4)
_var831_                                         0.16 	(obj:3)
_var837_                                         0.12 	(obj:2)
_var839_                                         0.32 	(obj:3)
_var841_                           0.0799999999999995 	(obj:3)
_var845_                           0.0399999999999995 	(obj:1)
_var851_                            0.199999999999999 	(obj:3)
_var853_                                          0.2 	(obj:3)
_var854_                            0.159999999999999 	(obj:4)
_var864_                            0.120000000000001 	(obj:4)
_var866_                           0.0399999999999989 	(obj:1)
_var867_                                          0.2 	(obj:4)
_var875_                            0.239999999999999 	(obj:4)
_var878_                           0.0399999999999996 	(obj:4)
_var882_                            0.080000000000001 	(obj:3)
_var885_                           0.0400000000000009 	(obj:3)
