results_rootrelaxation/bin012_090_031.srr.log
SCIP version 8.0.3.5 [precision: 8 byte] [memory: block] [mode: optimized] [LP solver: Soplex 6.0.1.3] [GitHash: 438792519e]
Copyright (c) 2002-2023 Zuse Institute Berlin (ZIB)

External libraries: 
  Readline 8.1         GNU library for command line editing (gnu.org/s/readline)
  Soplex 6.0.1.3       Linear Programming Solver developed at Zuse Institute Berlin (soplex.zib.de) [GitHash: 713be0fe]
  CppAD 20180000.0     Algorithmic Differentiation of C++ algorithms developed by B. Bell (github.com/coin-or/CppAD)
  ZLIB 1.2.11          General purpose compression library by J. Gailly and M. Adler (zlib.net)
  bliss 0.77           Computing Graph Automorphism Groups by T. Junttila and P. Kaski (www.tcs.hut.fi/Software/bliss/)

user parameter file <scip.set> not found - using default parameters

srr/relaxation = TRUE

read problem <instances/bin012_090_031.srr>
============

Original problem: 
original problem has 0 variables (0 bin, 0 int, 0 impl, 0 cont) and 77 constraints

presolving:
presolving (1 rounds: 1 fast, 1 medium, 1 exhaustive):
 0 deleted vars, 0 deleted constraints, 0 added constraints, 0 tightened bounds, 0 added holes, 0 changed sides, 0 changed coefficients
 0 implications, 0 cliques
presolved problem has 0 variables (0 bin, 0 int, 0 impl, 0 cont) and 77 constraints
     77 constraints of type <linear>
Presolving Time: 0.00

 time | node  | left  |LP iter|LP it/n|mem/heur|mdpt |vars |cons |rows |cuts |sepa|confs|strbr|  dualbound   | primalbound  |  gap   | compl. 
  0.0s|     1 |     0 |     1 |     - |   710k |   0 |   1 |  77 |  77 |   0 |  0 |   0 |   0 |      --      |      --      |    Inf | unknown
r 0.0s|     1 |     0 |   934 |     - |simplero|   0 | 681 |  77 |  77 |   0 |  0 |   0 |   0 |      --      | 4.603462e+01 |    Inf | unknown
r 0.0s|     1 |     0 |   959 |     - |simplero|   0 | 692 |  77 |  77 |   0 |  0 |   0 |   0 |      --      | 4.567532e+01 |    Inf | unknown
r 0.1s|     1 |     0 |  1002 |     - |simplero|   0 | 703 |  77 |  77 |   0 |  0 |   0 |   0 |      --      | 4.399915e+01 |    Inf | unknown
r 0.1s|     1 |     0 |  1046 |     - |simplero|   0 | 714 |  77 |  77 |   0 |  0 |   0 |   0 |      --      | 4.257316e+01 |    Inf | unknown
r 0.1s|     1 |     0 |  1089 |     - |simplero|   0 | 725 |  77 |  77 |   0 |  0 |   0 |   0 |      --      | 4.143777e+01 |    Inf | unknown
r 0.1s|     1 |     0 |  1136 |     - |simplero|   0 | 736 |  77 |  77 |   0 |  0 |   0 |   0 |      --      | 4.004083e+01 |    Inf | unknown
r 0.1s|     1 |     0 |  1214 |     - |simplero|   0 | 747 |  77 |  77 |   0 |  0 |   0 |   0 |      --      | 3.811729e+01 |    Inf | unknown
r 0.1s|     1 |     0 |  1266 |     - |simplero|   0 | 758 |  77 |  77 |   0 |  0 |   0 |   0 |      --      | 3.695637e+01 |    Inf | unknown
r 0.1s|     1 |     0 |  1308 |     - |simplero|   0 | 769 |  77 |  77 |   0 |  0 |   0 |   0 |      --      | 3.645951e+01 |    Inf | unknown
r 0.1s|     1 |     0 |  1342 |     - |simplero|   0 | 769 |  77 |  77 |   0 |  0 |   0 |   0 |      --      | 3.617374e+01 |    Inf | unknown
r 0.1s|     1 |     0 |  1381 |     - |simplero|   0 | 780 |  77 |  77 |   0 |  0 |   0 |   0 |      --      | 3.582444e+01 |    Inf | unknown
r 0.1s|     1 |     0 |  1398 |     - |simplero|   0 | 780 |  77 |  77 |   0 |  0 |   0 |   0 |      --      | 3.579064e+01 |    Inf | unknown
r 0.1s|     1 |     0 |  1402 |     - |simplero|   0 | 780 |  77 |  77 |   0 |  0 |   0 |   0 |      --      | 3.578817e+01 |    Inf | unknown
r 0.1s|     1 |     0 |  1403 |     - |simplero|   0 | 780 |  77 |  77 |   0 |  0 |   0 |   0 |      --      | 3.578747e+01 |    Inf | unknown
 time | node  | left  |LP iter|LP it/n|mem/heur|mdpt |vars |cons |rows |cuts |sepa|confs|strbr|  dualbound   | primalbound  |  gap   | compl. 
r 0.1s|     1 |     0 |  1436 |     - |simplero|   0 | 791 |  77 |  77 |   0 |  0 |   0 |   0 |      --      | 3.530035e+01 |    Inf | unknown
r 0.1s|     1 |     0 |  1470 |     - |simplero|   0 | 791 |  77 |  77 |   0 |  0 |   0 |   0 |      --      | 3.492131e+01 |    Inf | unknown
r 0.1s|     1 |     0 |  1487 |     - |simplero|   0 | 791 |  77 |  77 |   0 |  0 |   0 |   0 |      --      | 3.490425e+01 |    Inf | unknown
r 0.1s|     1 |     0 |  1534 |     - |simplero|   0 | 802 |  77 |  77 |   0 |  0 |   0 |   0 |      --      | 3.431790e+01 |    Inf | unknown
r 0.1s|     1 |     0 |  1578 |     - |simplero|   0 | 802 |  77 |  77 |   0 |  0 |   0 |   0 |      --      | 3.402910e+01 |    Inf | unknown
r 0.1s|     1 |     0 |  1588 |     - |simplero|   0 | 802 |  77 |  77 |   0 |  0 |   0 |   0 |      --      | 3.402694e+01 |    Inf | unknown
r 0.1s|     1 |     0 |  1619 |     - |simplero|   0 | 813 |  77 |  77 |   0 |  0 |   0 |   0 |      --      | 3.369131e+01 |    Inf | unknown
r 0.1s|     1 |     0 |  1631 |     - |simplero|   0 | 813 |  77 |  77 |   0 |  0 |   0 |   0 |      --      | 3.364007e+01 |    Inf | unknown
r 0.1s|     1 |     0 |  1634 |     - |simplero|   0 | 813 |  77 |  77 |   0 |  0 |   0 |   0 |      --      | 3.363992e+01 |    Inf | unknown
r 0.1s|     1 |     0 |  1676 |     - |simplero|   0 | 824 |  77 |  77 |   0 |  0 |   0 |   0 |      --      | 3.327523e+01 |    Inf | unknown
r 0.1s|     1 |     0 |  1694 |     - |simplero|   0 | 824 |  77 |  77 |   0 |  0 |   0 |   0 |      --      | 3.322881e+01 |    Inf | unknown
r 0.1s|     1 |     0 |  1735 |     - |simplero|   0 | 835 |  77 |  77 |   0 |  0 |   0 |   0 |      --      | 3.272988e+01 |    Inf | unknown
r 0.1s|     1 |     0 |  1738 |     - |simplero|   0 | 835 |  77 |  77 |   0 |  0 |   0 |   0 |      --      | 3.272704e+01 |    Inf | unknown
r 0.1s|     1 |     0 |  1781 |     - |simplero|   0 | 846 |  77 |  77 |   0 |  0 |   0 |   0 |      --      | 3.251905e+01 |    Inf | unknown
  0.1s|     1 |     0 |  1784 |     - |  4103k |   0 | 846 |  77 |  77 |   0 |  0 |   0 |   0 |      --      | 3.251905e+01 |    Inf | unknown
 time | node  | left  |LP iter|LP it/n|mem/heur|mdpt |vars |cons |rows |cuts |sepa|confs|strbr|  dualbound   | primalbound  |  gap   | compl. 
r 0.1s|     1 |     0 |  1784 |     - |simplero|   0 | 846 |  77 |  77 |   0 |  0 |   0 |   0 |      --      | 3.251848e+01 |    Inf | unknown
r 0.1s|     1 |     0 |  1823 |     - |simplero|   0 | 856 |  77 |  77 |   0 |  0 |   0 |   0 |      --      | 3.221659e+01 |    Inf | unknown
r 0.1s|     1 |     0 |  1833 |     - |simplero|   0 | 856 |  77 |  77 |   0 |  0 |   0 |   0 |      --      | 3.219596e+01 |    Inf | unknown
r 0.1s|     1 |     0 |  1855 |     - |simplero|   0 | 867 |  77 |  77 |   0 |  0 |   0 |   0 |      --      | 3.213163e+01 |    Inf | unknown
r 0.1s|     1 |     0 |  1865 |     - |simplero|   0 | 867 |  77 |  77 |   0 |  0 |   0 |   0 |      --      | 3.212601e+01 |    Inf | unknown
r 0.1s|     1 |     0 |  1867 |     - |simplero|   0 | 867 |  77 |  77 |   0 |  0 |   0 |   0 |      --      | 3.212544e+01 |    Inf | unknown
r 0.1s|     1 |     0 |  1892 |     - |simplero|   0 | 878 |  77 |  77 |   0 |  0 |   0 |   0 |      --      | 3.205882e+01 |    Inf | unknown
r 0.1s|     1 |     0 |  1905 |     - |simplero|   0 | 888 |  77 |  77 |   0 |  0 |   0 |   0 |      --      | 3.200000e+01 |    Inf | unknown
  0.1s|     1 |     0 |  1907 |     - |  4410k |   0 | 889 |  77 |  77 |   0 |  0 |   0 |   0 | 3.200000e+01 | 3.200000e+01 |   0.00%| unknown
  0.1s|     1 |     0 |  1907 |     - |  4410k |   0 | 889 |  77 |  77 |   0 |  0 |   0 |   0 | 3.200000e+01 | 3.200000e+01 |   0.00%| unknown

SCIP Status        : problem is solved [optimal solution found]
Solving Time (sec) : 0.10
Solving Nodes      : 1
Primal Bound       : +3.20000000000000e+01 (36 solutions)
Dual Bound         : +3.20000000000000e+01
Gap                : 0.00 %

written transformed problem to file <results_rootrelaxation/bin012_090_031.srr.lp>
written transformed problem to file <results_rootrelaxation/bin012_090_031.srr.cip>

written solution information to file <results_rootrelaxation/bin012_090_031.srr.sol>



